%chk=C:\Users\lipel\Google Drive\Laboratório\Quím-Mat\Projetos\Doutorado\pyCOF\Nucleo\C2\BBTZ.chk
# opt pm6 geom=connectivity

Title Card Required

0 1
 C                  1.25189703   -0.57468595    0.00000000
 C                  0.17134294   -1.44256678    0.00000000
 C                 -1.09842824   -0.84929888    0.00000000
 C                 -1.25189703    0.57468595    0.00000000
 C                 -0.17134294    1.44256678    0.00000000
 C                  1.09842824    0.84929888    0.00000000
 N                  2.32370532    1.57479197    0.00000000
 N                 -2.32370532   -1.57479197    0.00000000
 C                  3.35860322    0.79069460    0.00000000
 C                 -3.35860322   -0.79069460    0.00000000
 S                  2.95347392   -0.96257214    0.00000000
 S                 -2.95347392    0.96257214    0.00000000
 Q                 -4.31631402   -1.07842715    0.00000000
 Q                  4.31631402    1.07842715    0.00000000
 R1                -0.27117297    2.43757128    0.00000000
 R1                 0.27117297   -2.43757128    0.00000000