%chk=C:\Users\lipel\Google Drive\Laboratório\Quím-Mat\Projetos\Doutorado\pyCOF\Nucleo\C2\DPEL.chk
# hf/3-21g geom=connectivity

Title Card Required

0 1
 C                 -0.25847483   -4.71126256    0.00000000
 C                  1.06208325   -4.23760047    0.00000000
 C                  1.31127167   -2.85864770    0.00000000
 C                  0.24318818   -1.95360584    0.00000000
 C                 -1.07661539   -2.42594345    0.00000000
 C                 -1.32722907   -3.80600347    0.00000000
 C                  0.51713874   -0.43881994    0.00000000
 H                  1.52446085   -0.07592954    0.00000000
 C                 -0.51713874    0.43881994    0.00000000
 H                 -1.52446085    0.07592954    0.00000000
 C                 -0.24318818    1.95360584    0.00000000
 C                  1.07661539    2.42594345    0.00000000
 C                 -1.31127167    2.85864770    0.00000000
 C                  1.32722907    3.80600347    0.00000000
 C                 -1.06208325    4.23760047    0.00000000
 C                  0.25847483    4.71126256    0.00000000
 Q                 -0.43585995   -5.69540407    0.00000000
 Q                  0.43585995    5.69540407    0.00000000
 R1                -2.26882502   -4.14274826    0.00000000
 R1                 2.26882502    4.14274826    0.00000000
 R2                 2.25286673   -2.52190039    0.00000000
 R2                -2.25286673    2.52190039    0.00000000
 R3                -1.83964065   -1.77957479    0.00000000
 R3                 1.83964065    1.77957479    0.00000000
 R4                 1.82441005   -4.88479275    0.00000000
 R4                -1.82441005    4.88479275    0.00000000
