%chk=C:\Users\lipel\Google Drive\Laboratório\Quím-Mat\Projetos\Doutorado\pyCOF\Nucleo\C2\PYRN.chk
# hf/3-21g geom=connectivity

Title Card Required

0 1
 C                 -0.00000000   -3.51593286    0.00000000
 C                  1.21071388   -2.82716063    0.00000000
 C                  1.22888794   -1.42643742    0.00000000
 C                  0.00000000   -0.71665609    0.00000000
 C                 -1.22888794   -1.42643742    0.00000000
 C                 -1.21071388   -2.82716063    0.00000000
 C                  2.45886730   -0.67823894    0.00000000
 C                 -0.00000000    0.71665609    0.00000000
 C                  1.22888794    1.42643742   -0.00000000
 C                  2.45886730    0.67823894   -0.00000000
 C                  1.21071388    2.82716063   -0.00000000
 C                 -0.00000000    3.51593286    0.00000000
 C                 -1.21071388    2.82716063    0.00000000
 C                 -1.22888794    1.42643742    0.00000000
 C                 -2.45886730    0.67823894    0.00000000
 C                 -2.45886730   -0.67823894    0.00000000
 Q                  0.00000000   -4.51593286    0.00000000
 Q                 -0.00000000    4.51593286    0.00000000
 R1                -3.31510310   -1.19482414    0.00000000
 R1                 3.31510310    1.19482414   -0.00000000
 R2                -3.31510310    1.19482414   -0.00000000
 R2                 3.31510310   -1.19482414   -0.00000000
 R3                -2.07398835   -3.33189540    0.00000000
 R3                 2.07398835    3.33189540   -0.00000000
 R4                 2.07398835   -3.33189540    0.00000000
 R4                -2.07398835    3.33189540    0.00000000

