%chk=C:\Users\lipel\Google Drive\Laboratório\Quím-Mat\Projetos\Doutorado\pyCOF\Nucleo\C2\TPNY.chk
# hf/3-21g geom=connectivity

Title Card Required

0 1
 C                 -5.15115661   -0.46745944    0.00000000
 C                 -3.76780536   -0.66992718    0.00000000
 C                 -2.90419496    0.42593136    0.00000000
 C                 -3.41909888    1.71923615    0.00000000
 C                 -4.79949940    1.92181749    0.00000000
 C                 -5.66635933    0.82677134    0.00000000
 C                 -1.38051130    0.20153180    0.00000000
 C                 -0.51622882    1.29564870    0.00000000
 C                 -0.86600714   -1.09489463    0.00000000
 C                  0.86600714    1.09489463    0.00000000
 C                  0.51622882   -1.29564870    0.00000000
 C                  1.38051130   -0.20153180    0.00000000
 C                  2.90419496   -0.42593136    0.00000000
 C                  3.41909888   -1.71923615    0.00000000
 C                  3.76780536    0.66992718    0.00000000
 C                  4.79949940   -1.92181749    0.00000000
 C                  5.15115661    0.46745944    0.00000000
 C                  5.66635933   -0.82677134    0.00000000
 Q                 -6.65410148    0.97149208    0.00000000
 Q                  6.65410148   -0.97149208    0.00000000
 R1                 1.48560527    1.87824824    0.00000000
 R1                -1.48560527   -1.87824824    0.00000000
 R2                -0.88600479    2.22512184    0.00000000
 R2                 0.88600479   -2.22512184    0.00000000
 R3                -2.80068129    2.50482341    0.00000000
 R3                 2.80068129   -2.50482341    0.00000000
 R4                -5.17047168    2.84969392    0.00000000
 R4                 5.17047168   -2.84969392    0.00000000
 R5                 5.77040928    1.25239026    0.00000000
 R5                -5.77040928   -1.25239026    0.00000000
 R6                 3.40078796    1.60072326    0.00000000
 R6                -3.40078796   -1.60072326    0.00000000

 1 2 1.5 6 1.5 28 1.0
 2 3 1.5 30 1.0
 3 4 1.5 7 1.0
 4 5 1.5 23 1.0
 5 6 1.5 25 1.0
 6
 7 8 1.5 9 1.5
 8 10 1.5 21 1.0
 9 11 1.5 20 1.0
 10 12 1.5 19 1.0
 11 12 1.5 22 1.0
 12 13 1.0
 13 14 1.5 15 1.5
 14 16 1.5 24 1.0
 15 17 1.5 29 1.0
 16 18 1.5 26 1.0
 17 18 1.5 27 1.0
 18
 19
 20
 21
 22
 23
 24
 25
 26
 27
 28
 29
 30

