# opt pm6 geom=connectivity

Title Card Required

0 1
 C                 -1.77173902    0.59530348    0.00122795
 C                 -0.35501849    1.19705736    0.00208743
 C                  0.63792775   -0.03158582   -0.00010858
 C                 -0.25808336   -1.25469178   -0.00269174
 N                 -1.51888508   -0.89413412   -0.00189532
 H                 -2.35328187    0.88904961   -0.89121372
 H                 -0.18921817    1.83313627    0.88339144
 C                  1.50835284   -0.03273967   -1.26116849
 H                  2.17156139    0.83631039   -1.29610810
 H                  2.13565480   -0.93327237   -1.29424699
 H                  0.89991986   -0.03348224   -2.17163668
 C                  1.50775700   -0.03794670    1.26157747
 H                  2.13348653   -0.93961374    1.29185542
 H                  2.17222527    0.82997243    1.29924504
 H                  0.89877562   -0.04024759    2.17152654
 H                 -2.35261122    0.88528830    0.89542862
 H                 -0.18928822    1.83599783   -0.87720713
 R                 -1.87257750   -1.17234496   -0.00252824
