# opt pbepbe/6-311g/auto

Title Card Required

0 1
 R                  0.00000000    0.00000000    0.00000000
 O                  0.43000000    0.00000000    0.00000000
 H                  0.93564026    0.88708817    0.00000000

