%chk=C:\Users\lipel\Google Drive\Laboratório\Quím-Mat\Projetos\Doutorado\pyCOF\Nucleo\C3\TPTZ.chk
# hf/3-21g

Title Card Required

0 2
 C                 -1.21169445   -0.69956886    0.00000000
 C                  1.21169163   -0.69957374    0.00000000
 C                  0.00000283    1.39914261    0.00000000
 C                  2.54926920   -1.47147403    0.00000000
 C                  2.56709067   -2.85677450    0.00000000
 C                  3.75790146   -0.79493839    0.00000000
 C                  3.78515749   -3.54955443    0.00000000
 C                  4.96720813   -1.50261667    0.00000000
 C                  4.97677210   -2.87302142    0.00000000
 C                 -2.54896850   -1.47199487    0.00000000
 C                 -3.75758462   -0.79477848    0.00000000
 C                 -2.56738757   -2.85696894    0.00000000
 C                 -4.96658305   -1.50326532    0.00000000
 C                 -3.78490827   -3.55042010    0.00000000
 C                 -4.97649559   -2.87350035    0.00000000
 C                 -0.00030070    2.94346890    0.00000000
 C                  1.19049395    3.65155298    0.00000000
 C                 -1.19051389    3.65190732    0.00000000
 C                  1.18142557    5.05281975    0.00000000
 C                 -1.18229986    5.05303676    0.00000000
 C                 -0.00027651    5.74652177    0.00000000
 Q                 -5.84265915   -3.37326084    0.00000000
 Q                  5.84265916   -3.37326084    0.00000000
 Q                 -0.00000000    6.74652167    0.00000000
 R1                -3.76321414    0.20520564    0.00000000
 R1                 1.70389377   -3.36164187    0.00000000
 R1                 2.05932037    3.15643622    0.00000000
 R2                -5.83552983   -1.00835983    0.00000000
 R2                 3.79103014   -4.54953715    0.00000000
 R2                 2.04449969    5.55789699    0.00000000
 R3                -2.04514815    5.55849971    0.00000000
 R3                -3.79122787   -4.55040011    0.00000000
 R3                 5.83637603   -1.00809959    0.00000000
 R4                -2.05941304    3.15691835    0.00000000
 R4                -1.70426497   -3.36196318    0.00000000
 R4                 3.76367801    0.20504483    0.00000000
 N                 -1.21155211    0.69931215    0.00000000
 N                  1.21139815    0.69957883    0.00000000
 N                  0.00015396   -1.39889098    0.00000000

