%chk=C:\Users\lipel\Google Drive\Laboratório\Quím-Mat\Projetos\Doutorado\pyCOF\Nucleo\C4\BENZ.chk
# hf/3-21g geom=connectivity

Title Card Required

0 1
 C                 -1.20814314   -0.69737648    0.00000000
 C                  0.00000000   -1.39495464    0.00000000
 C                  1.20814314   -0.69737648   -0.00000000
 C                  1.20814314    0.69737648    0.00000000
 C                 -0.00000000    1.39495464    0.00000000
 C                 -1.20814314    0.69737648   -0.00000000
 Q                 -2.07405049    1.19759547    0.00000000
 Q                 -2.07405049   -1.19759547    0.00000000
 Q                  2.07405049    1.19759547   -0.00000000
 Q                  2.07405049   -1.19759547    0.00000000
 R1                 0.00000000    2.39499130    0.00000000
 R1                 0.00000000   -2.39499130    0.00000000
