# hf/3-21g

Title Card Required

0 1
 C                 -0.86269110    1.99438904    0.00000000
 C                  0.52868145    1.74193620    0.00000000
 C                  1.43111240    2.78130748    0.00000000
 C                  0.94609681    4.09077833    0.00000000
 C                 -0.41552354    4.33980382    0.00000000
 C                 -1.33552754    3.28950781    0.00000000
 C                 -1.58641955    0.70253571    0.00000000
 C                  0.67760030    0.28376064    0.00000000
 C                 -0.67760030   -0.28376064    0.00000000
 C                 -0.52868145   -1.74193620    0.00000000
 C                  0.86269110   -1.99438904    0.00000000
 C                 -1.43111240   -2.78130748    0.00000000
 C                  1.58641955   -0.70253571    0.00000000
 C                  1.33552754   -3.28950781    0.00000000
 C                 -0.94609681   -4.09077833    0.00000000
 C                  0.41552354   -4.33980382    0.00000000
 Q                  0.74457529   -5.28411571    0.00000000
 Q                 -0.74457529    5.28411571    0.00000000
 R1                -2.58283580    0.61795054    0.00000000
 R1                 2.58283580   -0.61795054    0.00000000
 R2                 2.31745510   -3.47876494    0.00000000
 R2                -2.31745510    3.47876494    0.00000000
 R3                -2.41572399   -2.60655048    0.00000000
 R3                 2.41572399    2.60655048    0.00000000
 R4                -1.59021921   -4.85570077    0.00000000
 R4                 1.59021921    4.85570077    0.00000000