# hf/3-21g geom=connectivity

Title Card Required

0 1
 C                  0.66243960   -1.23512787    0.00000000
 C                 -0.66243960   -1.23512787    0.00000000
 C                 -1.48900502    0.00000000    0.00000000
 C                 -0.66243960    1.23512787    0.00000000
 C                  0.66243960    1.23512787   -0.00000000
 C                  1.48900502    0.00000000    0.00000000
 C                  1.10343934   -2.70123525    0.00000000
 C                 -1.10343934   -2.70123525    0.00000000
 R2                -2.55897801    0.00000000    0.00000000
 R1                 2.55897801    0.00000000    0.00000000
 C                  1.10343934    2.70123525   -0.00000000
 C                 -1.10343934    2.70123525    0.00000000
 O                  2.31392447    3.11377809    0.00000000
 O                  2.31392447   -3.11377809    0.00000000
 O                 -2.31392447   -3.11377809    0.00000000
 O                 -2.31392447    3.11377809    0.00000000
 Q                 -0.00000000    3.45523012    0.00000000
 Q                  0.00000000   -3.45523012    0.00000000
