%chk=C:\Users\lipel\OneDrive\Documentos\GitHub\pyCOFBuilder\src\pycofbuilder\data\core\S4\NiBTC.chk
# opt pm6 geom=connectivity

Title Card Required

0 1
 O                  1.33213986    1.33213986    1.11473035
 O                  1.33213986    1.33213986   -1.11473035
 H                  2.11519370    2.11519370    0.00000000
 O                 -1.33213986   -1.33213986    1.11473035
 O                 -1.33213986   -1.33213986   -1.11473035
 H                 -2.11519370   -2.11519370    0.00000000
 O                  1.33213986   -1.33213986    1.11473035
 O                  1.33213986   -1.33213986   -1.11473035
 H                  2.11519370   -2.11519370    0.00000000
 O                 -1.33213986    1.33213986    1.11473035
 O                 -1.33213986    1.33213986   -1.11473035
 H                 -2.11519370    2.11519370    0.00000000
 C                 -1.76150897   -1.76150897    0.00000000
 C                  1.76150897   -1.76150897    0.00000000
 C                  1.76150897    1.76150897    0.00000000
 C                 -1.76150897    1.76150897    0.00000000
 Ni                 0.00000000    0.00000000    1.26544088
 Ni                 0.00000000    0.00000000   -1.26544088

 1 15 1.5 17 1.0
 2 15 1.5 18 1.0
 3 15 1.0
 4 13 1.5 17 1.0
 5 13 1.5 18 1.0
 6 13 1.0
 7 14 1.5 17 1.0
 8 14 1.5 18 1.0
 9 14 1.0
 10 16 1.5 17 1.0
 11 16 1.5 18 1.0
 12 16 1.0
 13
 14
 15
 16
 17 18 1.0
 18

