# opt pm6 geom=connectivity

Title Card Required

0 1
 C                  1.17075604   -2.90400585   -0.00021163
 C                  0.68867071   -4.31764875   -0.00144635
 C                 -0.68867071   -4.31764875    0.00144635
 C                 -1.17075604   -2.90400585    0.00021163
 N                  0.00000000   -2.10068996    0.00000000
 H                  0.00000000   -1.07710161    0.00000000
 H                  1.37313819   -5.15089094   -0.00216750
 H                 -1.33864208   -5.16003371   -0.00290408
 C                 -2.45005738   -2.49787969   -0.00017381
 C                  2.46657803   -2.48130912    0.00098625
 C                  2.88693825   -1.09590212    0.00252533
 C                  4.32230103   -0.67831267    0.00996134
 N                  2.07633798   -0.03251429   -0.00179006
 C                  4.33645024    0.67371852    0.00976090
 H                  5.14096820   -1.37275857    0.01508533
 C                  2.91965833    1.13704853    0.00149188
 H                  5.17290092    1.34881836    0.01503864
 C                 -2.87972872   -1.11533493    0.00121309
 C                 -4.31787913   -0.70743185    0.00825721
 N                 -2.07631248   -0.04651080   -0.00259948
 C                 -4.34114277    0.64447144    0.00802574
 H                 -5.13183815   -1.40739422    0.01306326
 C                 -2.92750217    1.11734174    0.00037267
 H                 -5.18212327    1.31392411    0.01295495
 C                  2.49687597    2.42775266   -0.00158051
 C                 -2.51342584    2.41086082   -0.00247867
 C                  1.17075604    2.90400585    0.00021163
 C                  0.68867071    4.31764875    0.00144635
 N                 -0.00000000    2.10068996    0.00000000
 C                 -0.68867071    4.31764875   -0.00144635
 H                  1.32591299    5.10455854   -0.04149886
 C                 -1.17075604    2.90400585   -0.00021163
 H                 -0.00000000    1.07710161    0.00000000
 H                 -1.36052702    5.09549984   -0.04200575
 C                 -3.54510527    3.48723570    0.00062449
 C                 -3.18170981    4.80395717   -0.31727707
 C                 -4.87549276    3.17916948    0.31981772
 C                 -4.15126402    5.81026825   -0.31102659
 H                 -2.14771214    5.03668341   -0.56978341
 C                 -5.83898986    4.19137401    0.32231205
 H                 -5.15337950    2.15361476    0.56053473
 C                 -5.47869807    5.50600384    0.00846177
 H                 -3.87118089    6.83342830   -0.55708010
 H                 -6.87289199    3.95404580    0.56836512
 C                 -3.52300090   -3.52343727   -0.00120217
 C                 -4.84123054   -3.15927015   -0.31537507
 C                 -3.21776578   -4.85725791    0.31028724
 C                 -5.84809021   -4.12806586   -0.31450635
 H                 -5.07315455   -2.12444048   -0.56271124
 C                 -4.23060133   -5.81969640    0.30921246
 H                 -2.19248880   -5.13693897    0.54796790
 C                 -5.54538825   -5.45739887   -0.00187426
 H                 -6.87100529   -3.84624313   -0.55944606
 H                 -3.99430392   -6.85493272    0.55051722
 C                  3.54639836   -3.49962973    0.00050026
 C                  4.86143652   -3.12673666    0.31813856
 C                  3.25154742   -4.83460524   -0.31565619
 C                  5.87542625   -4.08795944    0.31570979
 H                  5.08516817   -2.09080740    0.56853586
 C                  4.27143538   -5.78967494   -0.31539275
 H                  2.22879681   -5.12139401   -0.55559332
 C                  5.58297199   -5.41864487   -0.00121993
 H                  6.89600062   -3.79927616    0.56242368
 H                  4.04295191   -6.82601762   -0.55945160
 C                  3.52127304    3.51105822    0.00183036
 C                  3.14705622    4.82577727    0.31518467
 C                  4.85605358    3.21112080   -0.30685445
 C                  4.11041081    5.83812310    0.31630165
 H                  2.10982756    5.05221459    0.55974846
 C                  5.81267779    4.22974334   -0.30478915
 H                  5.14223692    2.18699710   -0.54422503
 C                  5.44183051    5.54224785    0.00592027
 H                  3.82225499    6.85938706    0.56085492
 H                  6.84955910    3.99915152   -0.54468492
 Q                 -6.17039182    6.22818968    0.01117651
 Q                  6.12891123    6.26882735    0.00744241
 Q                  6.31079711   -6.10440741   -0.00180290
 Q                 -6.26808700   -6.14856198   -0.00212408
