# opt pm6 geom=connectivity

TItle Card ReQuIred

0 1
 C                 -2.99720938    0.80870848    0.00000475
 C                 -4.34185900    0.15610094    0.00001026
 C                 -4.18161709   -1.18329956    0.00001656
 C                 -2.72096771   -1.50028942    0.00001562
 N                 -2.06048680   -0.25024812    0.00000835
 C                 -2.14573154   -2.72948904    0.00002067
 C                 -2.72948904    2.14573154    0.00002067
 C                 -1.50028942    2.72096771    0.00001562
 C                 -1.18329956    4.18161709    0.00001656
 N                 -0.25024812    2.06048680    0.00000835
 C                  0.15610094    4.34185900    0.00001026
 C                  0.80870848    2.99720938    0.00000475
 C                 -0.80870848   -2.99720938    0.00000475
 C                 -0.15610094   -4.34185900    0.00001026
 N                  0.25024812   -2.06048680    0.00000835
 C                  1.18329956   -4.18161709    0.00001656
 C                  1.50028942   -2.72096771    0.00001562
 C                  2.14573154    2.72948904    0.00002067
 C                  2.72948904   -2.14573154    0.00002067
 C                  2.72096771    1.50028942    0.00001562
 C                  4.18161709    1.18329956    0.00001656
 N                  2.06048680    0.25024812    0.00000835
 C                  4.34185900   -0.15610094    0.00001026
 C                  2.99720938   -0.80870848    0.00000475
 C                 -3.08438698   -3.95036003    0.00002827
 C                 -4.37764997   -3.83589959   -0.51069777
 C                 -2.64164675   -5.17058338    0.51050276
 C                 -5.22814074   -4.94128957   -0.51029110
 C                 -3.49193907   -6.27666325    0.51008017
 C                 -4.78506516   -6.16218174   -0.00007266
 C                 -3.95036003    3.08438698    0.00002827
 C                 -5.17060822    2.64161444    0.51041536
 C                 -3.83587474    4.37768229   -0.51061035
 C                 -6.27668807    3.49190679    0.50999276
 C                 -4.94126473    5.22817304   -0.51020363
 C                 -6.16218174    4.78506517   -0.00007265
 C                  3.95036003   -3.08438698    0.00002827
 C                  5.17058338   -2.64164675    0.51050276
 C                  3.83589959   -4.37764997   -0.51069777
 C                  6.27666325   -3.49193907    0.51008017
 C                  4.94128957   -5.22814074   -0.51029110
 C                  6.16218174   -4.78506516   -0.00007266
 C                  3.08438698    3.95036003    0.00002827
 C                  2.64161444    5.17060822    0.51041536
 C                  4.37768229    3.83587474   -0.51061035
 C                  3.49190679    6.27668807    0.50999276
 C                  5.22817304    4.94126473   -0.51020363
 C                  4.78506517    6.16218174   -0.00007265
 H                 -1.06756740   -0.13145819    0.00000607
 H                  1.06756740    0.13145819    0.00000607
 Q                 -6.95462781    5.39500714    0.00007421
 Q                  6.95462781   -5.39500714    0.00007416
 Q                  5.39500714    6.95462781    0.00007421
 Q                 -5.39500714   -6.95462781    0.00007416
 R1                 4.88155718    1.88720865   -0.00001401
 R1                -4.88155718   -1.88720865   -0.00001401
 R1                 1.88720865   -4.88155718   -0.00001401
 R1                -1.88720865    4.88155718   -0.00001401
 R2                 5.18985920   -0.68976938   -0.00000189
 R2                 0.68976938    5.18985920   -0.00000189
 R2                -5.18985920    0.68976938   -0.00000189
 R2                -0.68976938   -5.18985920   -0.00000189
 R3                -4.85912710    6.15536536   -0.87567292
 R3                 6.15536536    4.85912710   -0.87567292
 R3                 4.85916972   -6.15530993   -0.87582306
 R3                -6.15530993   -4.85916972   -0.87582306
 R4                 3.17409283    7.15150719    0.87562344
 R4                 7.15146458   -3.17414825    0.87577353
 R4                -3.17414825   -7.15146458    0.87577353
 R4                -7.15150719    3.17409283    0.87562344
 R5                -2.96072932    4.69508385   -0.87581815
 R5                 4.69508385    2.96072932   -0.87581815
 R5                 2.96077194   -4.69502841   -0.87596825
 R5                -4.69502841   -2.96077194   -0.87596825
 R6                -5.25286957    1.71460064    0.87630945
 R6                 1.71460064    5.25286957    0.87630945
 R6                 5.25282692   -1.71465611    0.87645953
 R6                -1.71465611   -5.25282692    0.87645953

