# hf/3-21g geom=connectivity

Title Card Required

0 1
 C                  0.78810034   -3.42461017    0.00000000
 C                  1.81316755   -2.48160287    0.00000000
 C                  1.51637422   -1.11256324    0.00000000
 C                  0.15951098   -0.69682245    0.00000000
 C                 -0.87858062   -1.66449713    0.00000000
 C                 -0.54635097   -3.02530438    0.00000000
 C                  2.54695649   -0.10730189    0.00000000
 C                 -0.15951098    0.69682245    0.00000000
 C                  0.87858062    1.66449713    0.00000000
 C                  2.24233439    1.21465393    0.00000000
 C                  0.54635097    3.02530438    0.00000000
 C                 -0.78810034    3.42461017    0.00000000
 C                 -1.81316755    2.48160287    0.00000000
 C                 -1.51637422    1.11256324    0.00000000
 C                 -2.54695649    0.10730189    0.00000000
 C                 -2.24233439   -1.21465393    0.00000000
 Q                 -1.27435512   -3.71087704    0.00000000
 Q                  2.76776626   -2.77949764    0.00000000
 Q                 -2.76776626    2.77949764    0.00000000
 Q                  1.27435512    3.71087704    0.00000000
 R1                 1.01260023   -4.39908428    0.00000000
 R1                -1.01260023    4.39908428    0.00000000
 R2                -2.96363189   -1.90716782    0.00000000
 R2                 2.96363189    1.90716782    0.00000000
 R3                 3.49734537   -0.41836609    0.00000000
 R3                -3.49734537    0.41836609    0.00000000
