# hf/3-21g

Title Card Required

0 1
 C                  0.78810034   -3.42461017    0.00000000
 C                  1.81316755   -2.48160287    0.00000000
 C                  1.51637422   -1.11256324    0.00000000
 C                  0.15951098   -0.69682245    0.00000000
 C                 -0.87858062   -1.66449713    0.00000000
 C                 -0.54635097   -3.02530438    0.00000000
 C                  2.54695649   -0.10730189    0.00000000
 C                 -0.15951098    0.69682245    0.00000000
 C                  0.87858062    1.66449713    0.00000000
 C                  2.24233439    1.21465393    0.00000000
 C                  0.54635097    3.02530438    0.00000000
 C                 -0.78810034    3.42461017    0.00000000
 C                 -1.81316755    2.48160287    0.00000000
 C                 -1.51637422    1.11256324    0.00000000
 C                 -2.54695649    0.10730189    0.00000000
 C                 -2.24233439   -1.21465393    0.00000000
 C                  1.66747741    4.08108632    0.00000000
 C                  2.89265870    3.79750492   -0.60413890
 C                  1.45806498    5.32086548    0.60385611
 C                  3.90837537    4.75329845   -0.60378356
 H                  3.05770703    2.81971083   -1.07944886
 C                  2.47364760    6.27742267    0.60343566
 H                  0.49243017    5.54460382    1.07990189
 C                  3.69872486    5.99380568   -0.00012388
 H                  4.87432027    4.52961822   -1.07940327
 H                  2.30810666    7.25499880    1.07926687
 C                  3.28324957   -2.94036082    0.00000000
 C                  3.63738577   -4.14704021   -0.60413890
 C                  4.26072474   -2.14950797    0.60385611
 C                  4.96861930   -4.56301965   -0.60378356
 H                  2.86641174   -4.77067575   -1.07944886
 C                  5.59255788   -2.56499586    0.60343566
 H                  3.98181187   -1.19834181    1.07990189
 C                  5.94661202   -3.77160207   -0.00012388
 H                  5.24773496   -5.51442747   -1.07940327
 H                  6.36310026   -1.94103806    1.07926687
 C                 -1.66747741   -4.08108632    0.00000000
 C                 -2.89265870   -3.79750492   -0.60413890
 C                 -1.45806498   -5.32086548    0.60385611
 C                 -3.90837537   -4.75329845   -0.60378356
 H                 -3.05770703   -2.81971083   -1.07944886
 C                 -2.47364760   -6.27742267    0.60343566
 H                 -0.49243017   -5.54460382    1.07990189
 C                 -3.69872486   -5.99380568   -0.00012388
 H                 -4.87432027   -4.52961822   -1.07940327
 H                 -2.30810666   -7.25499880    1.07926687
 C                 -3.28324957    2.94036082    0.00000000
 C                 -3.63738577    4.14704021   -0.60413890
 C                 -4.26072474    2.14950797    0.60385611
 C                 -4.96861930    4.56301965   -0.60378356
 H                 -2.86641174    4.77067575   -1.07944886
 C                 -5.59255788    2.56499586    0.60343566
 H                 -3.98181187    1.19834181    1.07990189
 C                 -5.94661202    3.77160207   -0.00012388
 H                 -5.24773496    5.51442747   -1.07940327
 H                 -6.36310026    1.94103806    1.07926687
 Q                  4.42710401    6.67897998   -0.00000000
 Q                  6.90104761   -4.07001906   -0.00000000
 Q                 -4.42710401   -6.67897998   -0.00000000
 Q                 -6.90104761    4.07001906   -0.00000000
 R1                 1.01260023   -4.39908428    0.00000000
 R1                -1.01260023    4.39908428    0.00000000
 R2                -2.96363189   -1.90716782    0.00000000
 R2                 2.96363189    1.90716782    0.00000000
 R3                 3.49734537   -0.41836609    0.00000000
 R3                -3.49734537    0.41836609    0.00000000
