%chk=C:\Users\lipel\Google Drive\Laboratório\Quím-Mat\Projetos\Doutorado\pyCOF\Nucleo\C2\2BPD.chk
# hf/3-21g geom=connectivity

Title Card Required

0 1
 C                  0.00000000    0.76987597   -0.00000000
 C                  1.21267841    2.87292829    0.00000000
 C                 -0.00000000    3.57271754    0.00000000
 C                 -1.21267841    2.87292829    0.00000000
 C                 -1.21404571    1.47149002    0.00000000
 C                  0.00000000   -0.76987597   -0.00000000
 C                  1.21404571   -1.47149002    0.00000000
 C                  1.21267841   -2.87292829    0.00000000
 C                  0.00000000   -3.57271754    0.00000000
 C                 -1.21267841   -2.87292829    0.00000000
 N                 -1.21404571   -1.47149002    0.00000000
 N                  1.21404571    1.47149002    0.00000000
 Q                  0.00000000   -4.57271754   -0.00000000
 Q                 -0.00000000    4.57271754   -0.00000000
 R1                 2.07866374   -3.37299771    0.00000000
 R1                -2.07866374    3.37299771    0.00000000
 R2                -2.07866374   -3.37299771    0.00000000
 R2                 2.07866374    3.37299771    0.00000000
 R3                 2.08019879   -0.97171121    0.00000000
 R3                -2.08019879    0.97171121    0.00000000

