%chk=C:\Users\lipel\Google Drive\Laboratório\Quím-Mat\Projetos\Doutorado\pyCOF\Nucleo\C2\BPYB.chk
# opt rpm6 scrf=check guess=huckel genchk

Title Card Required

0 1
 C                 -8.22094650   -0.61567202    0.00000000
 C                 -7.61221073    0.65552958    0.00000000
 C                 -6.22422118    0.75505789    0.00000000
 C                 -5.42854396   -0.40887919    0.00000000
 C                 -6.04202286   -1.67576565    0.00000000
 C                 -7.43174616   -1.78172080    0.00000000
 C                 -4.01734090   -0.30303330    0.00000000
 C                 -2.81031842   -0.21216576    0.00000000
 C                 -1.39844478   -0.10567006    0.00000000
 C                 -0.78644346    1.16293017    0.00000000
 C                 -0.60285439   -1.26796826    0.00000000
 C                  0.60285439    1.26796826    0.00000000
 C                  0.78644346   -1.16293017    0.00000000
 C                  1.39844478    0.10567006    0.00000000
 C                  2.81031842    0.21216576    0.00000000
 C                  4.01734090    0.30303330    0.00000000
 C                  5.42854396    0.40887919    0.00000000
 C                  6.22422118   -0.75505789    0.00000000
 C                  6.04202286    1.67576565    0.00000000
 C                  7.61221073   -0.65552958    0.00000000
 C                  7.43174616    1.78172080    0.00000000
 C                  8.22094650    0.61567202    0.00000000
 Q                 -9.21788264   -0.65189649    0.00000000
 Q                  9.21788264    0.65189649    0.00000000
 R1                 7.86558549    2.68264005    0.00000000
 R1                -7.86558549   -2.68264005    0.00000000
 R2                 8.18177237   -1.47740665    0.00000000
 R2                -8.18177237    1.47740665    0.00000000
 R3                 5.47679170    2.50057948    0.00000000
 R3                -5.47679170   -2.50057948    0.00000000
 R4                 5.78582665   -1.65374858    0.00000000
 R4                -5.78582665    1.65374858    0.00000000
 R5                 1.03928601    2.16770758    0.00000000
 R5                -1.03928601   -2.16770758    0.00000000
 R6                 1.35304933   -1.98685292    0.00000000
 R6                -1.35304933    1.98685292    0.00000000

