%chk=C:\Users\lipel\Google Drive\Laboratório\Quím-Mat\Projetos\Doutorado\pyCOF\Nucleo\C2\BTPH.chk
# hf/3-21g geom=connectivity

Title Card Required

0 1
 C                 -0.17732188   -3.18986761    0.00000000
 C                  1.15323105   -2.83436763    0.00000000
 C                  1.31690617   -1.41163359    0.00000000
 C                  0.10190056   -0.76323295    0.00000000
 S                 -1.17242337   -1.84602277    0.00000000
 C                 -0.10190056    0.76323295    0.00000000
 C                 -1.31690617    1.41163359    0.00000000
 S                  1.17242337    1.84602277    0.00000000
 C                 -1.15323105    2.83436763    0.00000000
 C                  0.17732188    3.18986761    0.00000000
 Q                 -0.53111044   -4.12519304    0.00000000
 Q                  0.53111044    4.12519304    0.00000000
 R1                 2.21140217   -0.96455762    0.00000000
 R1                -2.21140217    0.96455762    0.00000000
 R2                 1.92283927   -3.47288403    0.00000000
 R2                -1.92283927    3.47288403    0.00000000

