%chk=C:\Users\lipel\Google Drive\Laboratório\Quím-Mat\Projetos\Doutorado\pyCOF\Nucleo\C2\DPBY.chk
# hf/3-21g geom=connectivity

Title Card Required

0 1
 C                  0.00000000   -6.30127946    0.00000000
 C                  1.20852509   -5.60328130    0.00000000
 C                  1.20832160   -4.20847452    0.00000000
 C                  0.00000000   -3.51107781   -0.00000000
 C                 -1.20832160   -4.20847452    0.00000000
 C                 -1.20852509   -5.60328130    0.00000000
 C                  0.00000000   -1.97129426   -0.00000000
 C                  0.00000000   -0.76996817   -0.00000000
 C                 -0.00000000    0.76996817   -0.00000000
 C                 -0.00000000    1.97129426   -0.00000000
 C                 -0.00000000    3.51107781   -0.00000000
 C                  1.20832160    4.20847452   -0.00000000
 C                 -1.20832160    4.20847452    0.00000000
 C                  1.20852509    5.60328130   -0.00000000
 C                 -1.20852509    5.60328130    0.00000000
 C                 -0.00000000    6.30127946    0.00000000
 Q                  0.00000000   -7.30127946    0.00000000
 Q                 -0.00000000    7.30127946    0.00000000
 R1                -2.07415731   -3.70814610    0.00000000
 R1                 2.07415731    3.70814610   -0.00000000
 R2                -2.07451935    6.10333523    0.00000000
 R2                 2.07451935   -6.10333523    0.00000000
 R3                -2.07451935   -6.10333523    0.00000000
 R3                 2.07451935    6.10333523   -0.00000000
 R4                 2.07415731   -3.70814610    0.00000000
 R4                -2.07415731    3.70814610    0.00000000
