# opt pbepbe/6-311g/auto

Title Card Required

0 2
 R                  0.00000000    0.00000000    0.00000000
 C                  0.45000000    0.00000000    0.00000000
 S                  1.17508507   -0.85756574    0.49511581
 H                  1.09769069    0.78115892   -0.45100232

