# opt pbepbe/6-311g/auto

Title Card Required

0 1
 R                  0.00000000    0.00000000    0.00000000
 C                  0.43389000    0.00000000    0.00000000
 N                  1.59042000    0.00000000    0.00000000

