# opt pbepbe/6-311g/auto

Title Card Required

0 1
 H                  0.09920000    0.00000000    0.00000000
 R                  0.00000000    0.00000000    0.00000000
