# opt pbepbe/6-311g/auto

Title Card Required

0 2
 R                  0.00000000    0.00000000    0.00000000
 N                  0.45389000    0.00000000    0.00000000
 O                  1.02537385    1.04253989    0.00000000    

