# opt pbepbe/6-311g/auto

Title Card Required

0 2
 R                  0.00000000    0.00000000    0.00000000
 O                  1.00596393    0.95381325    0.55068433
 N                  0.47989000    0.00000000    0.00000000
 O                  1.08542767   -0.91777892   -0.52987991

