# opt pbepbe/6-311g/auto

Title Card Required

0 q
 R                  0.00000000    0.00000000    0.00000000
 C                  0.50000000    0.00000000    0.00000000
 C                  1.19777686    1.20769410   -0.04241421
 C                  1.19747587   -1.20717315    0.04239591
 C                  2.59248872    1.20745393   -0.04312542
 H                  0.64787101    2.15942931   -0.07558261
 C                  2.59261379   -1.20720485    0.04267364
 H                  0.64783389   -2.15914514    0.07582107
 C                  3.29006479   -0.00003099   -0.00023909
 H                  3.14263881    2.15902339   -0.07617420
 H                  3.14225411   -2.15898945    0.07629824
 H                  4.38967509    0.00001453   -0.00035795