# opt pbepbe/6-311g/auto

Title Card Required

0 2
 R                  0.00000000    0.00000000    0.00000000
 S                  0.86934000    0.00000000    0.00000000
 O                  1.70340865    1.00594340   -0.58078169
 H                  2.62538031    0.77514450   -0.44550371
 O                  1.18066449   -1.09689608   -0.68623953
 O                  1.18066449    0.04585282    1.29305964

