%chk=C:\Users\lipel\Google Drive\Laboratório\Quím-Mat\Projetos\Doutorado\pyCOF\Nucleo\C4\PORP.chk
# opt pm6 geom=connectivity

Title Card Required

0 1
 C                  0.00000000    1.16273178    2.88833204
 C                  0.00000000    0.67447594    4.30098395
 C                  0.00000000   -0.67447594    4.30098395
 C                  0.00000000   -1.16273178    2.88833204
 N                  0.00000000   -0.00000000    2.08403540
 H                  0.00000000   -0.00000000    1.05916588
 C                  0.00000000   -2.45156021    2.46318543
 C                 -0.00000000    2.45156021    2.46318543
 C                  0.00000000    2.87257266    1.08696217
 C                  0.00000000    4.31170396    0.67483596
 N                  0.00000000    2.06967823    0.01927563
 C                  0.00000000    4.33183815   -0.67810348
 C                  0.00000000    2.91577209   -1.14817690
 C                  0.00000000   -2.87257266    1.08696217
 C                  0.00000000   -4.31170396    0.67483596
 N                  0.00000000   -2.06967823    0.01927563
 C                  0.00000000   -4.33183815   -0.67810348
 C                  0.00000000   -2.91577209   -1.14817690
 C                  0.00000000    2.49626428   -2.43361168
 C                  0.00000000   -2.49626428   -2.43361168
 C                  0.00000000    1.13817858   -2.90669862
 C                  0.00000000    0.70110890   -4.26020095
 N                  0.00000000   -0.00000000   -2.09922784
 C                  0.00000000   -0.70110890   -4.26020095
 C                  0.00000000   -1.13817858   -2.90669862
 H                  0.00000000   -0.00000000   -1.07984618
 Q                  0.00000000    3.18220531   -3.16126882
 Q                  0.00000000   -3.18606642    3.14178740
 Q                  0.00000000   -3.18220531   -3.16126882
 Q                 -0.00000000    3.18606642    3.14178740
 R1                 0.00000000    1.29767734   -5.06276316
 R1                 0.00000000   -1.30260792    5.07909077
 R1                 0.00000000   -5.11510415   -1.29979019
 R1                 0.00000000    5.07291024    1.32334578
 R2                 0.00000000   -1.29767734   -5.06276316
 R2                 0.00000000    5.11510415   -1.29979019
 R2                 0.00000000    1.30260792    5.07909077
 R2                 0.00000000   -5.07291024    1.32334578