# hf/3-21g

Title Card Required

0 1
 C                  3.46401247    3.70378769    0.00000000
 C                  2.78985216    4.88319857    0.00000000
 C                  1.38920459    4.88841624    0.00000000
 C                  0.69854505    3.67645553    0.00000000
 C                  1.40849497    2.47197148    0.00000000
 C                  2.76443126    2.48482923    0.00000000
 C                  0.68050567    6.10026476    0.00000000
 C                 -0.69854505    3.67645553    0.00000000
 C                 -1.38920459    4.88841624    0.00000000
 C                 -0.68050567    6.10026476    0.00000000
 C                 -2.78985216    4.88319857    0.00000000
 C                 -3.46401247    3.70378769    0.00000000
 C                 -2.76443126    2.48482923    0.00000000
 C                 -1.40849497    2.47197148    0.00000000
 C                 -3.53414087    1.15165308    0.00000000
 C                 -4.93958046    1.14802895    0.00000000
 C                 -2.84503758   -0.01619331    0.00000000
 C                 -5.62390009   -0.02551644    0.00000000
 C                 -3.53317641   -1.23327001    0.00000000
 C                 -4.92809494   -1.24112165    0.00000000
 C                 -2.83463136   -2.44318552    0.00000000
 C                 -5.62323709   -2.46079718    0.00000000
 C                 -3.53889035   -3.64729458    0.00000000
 C                 -1.43654261   -2.45577816    0.00000000
 C                 -4.94273141   -3.63946758    0.00000000
 C                 -2.83404793   -4.85768213    0.00000000
 C                 -0.76970961   -3.63648231    0.00000000
 C                 -1.47556800   -4.85181664    0.00000000
 C                  3.53414087    1.15165308    0.00000000
 C                  4.93958046    1.14802895    0.00000000
 C                  2.84503758   -0.01619331    0.00000000
 C                  5.62390009   -0.02551644    0.00000000
 C                  3.53317641   -1.23327001    0.00000000
 C                  4.92809494   -1.24112165    0.00000000
 C                  2.83463136   -2.44318552    0.00000000
 C                  5.62323709   -2.46079718    0.00000000
 C                  3.53889035   -3.64729458    0.00000000
 C                  1.43654261   -2.45577816    0.00000000
 C                  4.94273141   -3.63946758    0.00000000
 C                  2.83404793   -4.85768213    0.00000000
 C                  0.76970961   -3.63648231    0.00000000
 C                  1.47556800   -4.85181664    0.00000000
 Q                  5.44511153   -4.50411445    0.00000000
 Q                  1.17812178    6.96766214    0.00000000
 Q                 -6.62323330   -2.46354768    0.00000000
 R1                 6.62323330   -2.46354768    0.00000000
 R1                -5.44511153   -4.50411445    0.00000000
 R1                -1.17812178    6.96766214    0.00000000
 R2                 3.33139501   -5.72523379    0.00000000
 R2                 3.29250040    5.74768960    0.00000000
 R2                -6.62389541   -0.02245581    0.00000000
 R3                 0.97481522   -5.71740699    0.00000000
 R3                 4.46401209    3.70291824    0.00000000
 R3                -5.43882731    2.01448875    0.00000000
 R4                -0.97481522   -5.71740699    0.00000000
 R4                -4.46401209    3.70291824    0.00000000
 R4                 5.43882731    2.01448875    0.00000000
 R5                -3.33139501   -5.72523379    0.00000000
 R5                -3.29250040    5.74768960    0.00000000
 R5                 6.62389541   -0.02245581    0.00000000
 R6                 0.92855539   -1.59441356    0.00000000
 R6                 0.91652495    1.60135934    0.00000000
 R6                -1.84508034   -0.00694578    0.00000000
 R7                -0.92855539   -1.59441356    0.00000000
 R7                -0.91652495    1.60135934    0.00000000
 R7                 1.84508034   -0.00694578    0.00000000
