# hf/3-21g geom=connectivity

Title Card Required

0 1
 C                  1.17219867   -3.64314314   -0.31392357
 C                  1.17177224   -2.24036695   -0.31383151
 C                  0.00000000   -1.54048886   -0.00000000
 C                 -1.17177224   -2.24036695    0.31383151
 C                 -1.17219867   -3.64314314    0.31392357
 C                  0.00000000   -4.34332397    0.00000000
 H                  2.06811985   -1.70596688   -0.55394143
 H                 -2.06811985   -1.70596688    0.55394143
 C                  1.33410249    0.77024443   -0.00000000
 C                  2.52610081    0.10539895    0.31383151
 C                  1.35432858    2.13496800   -0.31383151
 C                  3.74115384    0.80641774    0.31392357
 H                  2.51147058   -0.93806089    0.55394143
 C                  2.56895517    2.83672539   -0.31392357
 H                  0.44335073    2.64402777   -0.55394143
 C                  3.76142890    2.17166199    0.00000000
 C                 -1.33410249    0.77024443   -0.00000000
 C                 -2.52610081    0.10539895   -0.31383151
 C                 -1.35432858    2.13496800    0.31383151
 C                 -3.74115384    0.80641774   -0.31392357
 H                 -2.51147058   -0.93806089   -0.55394143
 C                 -2.56895517    2.83672539    0.31392357
 H                 -0.44335073    2.64402777    0.55394143
 C                 -3.76142890    2.17166199    0.00000000
 N                  0.00000000    0.00000000    0.00000000
 Q                 -4.62745430    2.67166199   -0.00000000
 Q                  4.62745430    2.67166199   -0.00000000
 Q                  0.00000000   -5.34332397   -0.00000000
 R1                -4.59221888    0.33221047   -0.53934708
 R1                 2.00840673   -4.14308345   -0.53934708
 R1                 2.58381215    3.81087298   -0.53934708
 R2                -2.58381215    3.81087298    0.53934708
 R2                 4.59221888    0.33221047    0.53934708
 R2                -2.00840673   -4.14308345    0.53934708