
# opt pbepbe/6-311g/auto

Title Card Required

0 2
 Q                  0.00000000    0.00000000    0.00000000
 O                  0.37794000    0.00000000    0.00000000
 O                 -0.43073192    2.22849645    0.00000000
 X                  0.73139518    1.38923380    0.00000000


