# opt pbepbe/6-311g/auto

Title Card Required

0 2
 Q                  0.00000000    0.00000000    0.00000000
 O                  0.37794000    0.00000000    0.00000000
 O                 -0.78593823    2.26858700    0.00000000
 X                  0.58352143    1.53832385    0.00000000

