# opt pbepbe/6-311g/auto

Title Card Required

0 2
 Q                  0.00000000    0.00000000    0.00000000
 O                  0.39015262   -0.00158280    0.00000000
 O                 -0.69278986    2.10924734    0.00000000
 X                  0.56297283    1.42029309    0.00000000

