%chk=C:\Users\lipel\Google Drive\Laboratório\Quím-Mat\Projetos\Doutorado\pyCOF\Nucleo\C4\PORP.chk
# opt pm6 geom=connectivity

Title Card Required

0 1
 C                  1.16273178    2.88833204    0.00000000
 C                  0.67447594    4.30098395    0.00000000
 C                 -0.67447594    4.30098395    0.00000000
 C                 -1.16273178    2.88833204    0.00000000
 N                 -0.00000000    2.08403540    0.00000000
 H                 -0.00000000    1.05916588    0.00000000
 C                 -2.45156021    2.46318543    0.00000000
 C                  2.45156021    2.46318543    0.00000000
 C                  2.87257266    1.08696217    0.00000000
 C                  4.31170396    0.67483596    0.00000000
 N                  2.06967823    0.01927563    0.00000000
 C                  4.33183815   -0.67810348    0.00000000
 C                  2.91577209   -1.14817690    0.00000000
 C                 -2.87257266    1.08696217    0.00000000
 C                 -4.31170396    0.67483596    0.00000000
 N                 -2.06967823    0.01927563    0.00000000
 C                 -4.33183815   -0.67810348    0.00000000
 C                 -2.91577209   -1.14817690    0.00000000
 C                  2.49626428   -2.43361168    0.00000000
 C                 -2.49626428   -2.43361168    0.00000000
 C                  1.13817858   -2.90669862    0.00000000
 C                  0.70110890   -4.26020095    0.00000000
 N                 -0.00000000   -2.09922784    0.00000000
 C                 -0.70110890   -4.26020095    0.00000000
 C                 -1.13817858   -2.90669862    0.00000000
 H                 -0.00000000   -1.07984618    0.00000000
 Q                  3.18220531   -3.16126882    0.00000000
 Q                 -3.18606642    3.14178740    0.00000000
 Q                 -3.18220531   -3.16126882    0.00000000
 Q                  3.18606642    3.14178740    0.00000000
 R1                 1.29767734   -5.06276316    0.00000000
 R1                -1.30260792    5.07909077    0.00000000
 R1                -5.11510415   -1.29979019    0.00000000
 R1                 5.07291024    1.32334578    0.00000000
 R2                -1.29767734   -5.06276316    0.00000000
 R2                 5.11510415   -1.29979019    0.00000000
 R2                 1.30260792    5.07909077    0.00000000
 R2                -5.07291024    1.32334578    0.00000000