# opt pm6

Title Card Required

0 1
 Q                 -0.00000000    0.31820500    0.00000000
 Q                  0.00000000   -0.31820500    0.00000000
