# opt pm6

Title Card Required

0 1
 C         4.73065589   -2.79046864    0.00000000
 C         3.39086236   -2.41746190    0.00000000
 C         2.96331549   -1.06055106    0.00000000
 C         3.99923800   -0.12067825    0.00000000
 C         5.35477025   -0.47932553    0.00000000
 C         5.73592572   -1.81694461    0.00000000
 H         3.79798062    0.94261719    0.00000000
 C         1.49420565   -0.77202274    0.00000000
 C         0.69018216   -1.93150802    0.00000000
 C         0.74321964    0.42431332    0.00000000
 C        -0.69018216   -1.93150802    0.00000000
 C        -0.74321964    0.42431332    0.00000000
 C        -1.49420565   -0.77202274    0.00000000
 C        -2.96331549   -1.06055106    0.00000000
 C        -3.39086236   -2.41746190    0.00000000
 C        -3.99923800   -0.12067825    0.00000000
 C        -4.73065589   -2.79046864    0.00000000
 C        -5.35477025   -0.47932553    0.00000000
 H        -3.79798062    0.94261719    0.00000000
 C        -5.73592572   -1.81694461    0.00000000
 N         1.11104831    1.81211429    0.00000000
 N        -1.11104831    1.81211429    0.00000000
 C         0.00000000    2.62471728    0.00000000
 C         2.44392072    2.46146956    0.00000000
 H         3.00513277    2.12581392    0.90917438
 H         3.00513277    2.12581392   -0.90917438
 C         2.35004640    3.98471178    0.00000000
 H         3.34777379    4.43527766    0.00000000
 H         1.80542821    4.35930052   -0.87900785
 H         1.80542821    4.35930052    0.87900785
 C        -2.44392072    2.46146956    0.00000000
 H        -3.00513277    2.12581392   -0.90917438
 H        -3.00513277    2.12581392    0.90917438
 C        -2.35004640    3.98471178    0.00000000
 H        -1.80542821    4.35930052    0.87900785
 H        -1.80542821    4.35930052   -0.87900785
 H        -3.34777379    4.43527766    0.00000000
 Q         6.70095318   -2.07909342    0.00000000
 Q        -6.70095318   -2.07909342    0.00000000
 R1        6.04913548    0.24029724    0.00000000
 R1       -6.04913548    0.24029724    0.00000000
 R2        4.97554731   -3.76001914    0.00000000
 R2       -4.97554731   -3.76001914    0.00000000
 R3        2.71759253   -3.15685877    0.00000000
 R3       -2.71759253   -3.15685877    0.00000000
 R4        1.11936570   -2.83472532    0.00000000
 R4       -1.11936570   -2.83472532    0.00000000
