%chk=C:\Users\lipel\Google Drive\Laboratório\Quím-Mat\Projetos\Doutorado\pyCOF\Nucleo\C3\TPNY.chk
# opt pm6 geom=connectivity

Title Card Required

0 2
 C                 -3.59593182    1.10138095    0.00000000
 C                 -2.32508495    1.65708737    0.00000000
 C                 -1.17008408    0.83948268    0.00000000
 C                 -1.32276051   -0.56586987    0.00000000
 C                 -2.62875337   -1.11332915    0.00000000
 C                 -3.74876748   -0.29759456    0.00000000
 C                  0.17132257    1.42847914    0.00000000
 C                 -0.14197129   -1.43306388    0.00000000
 C                  1.15143794   -0.86260927    0.00000000
 C                  1.31205537    0.59358120    0.00000000
 C                  2.27854801   -1.71990262    0.00000000
 C                  2.13210818   -3.09773059    0.00000000
 C                  0.84414203   -3.66485878    0.00000000
 C                 -0.27253729   -2.84212632    0.00000000
 H                 -4.74686077   -0.72922758    0.00000000
 H                  3.00495999   -3.74628823    0.00000000
 C                  2.59762224    1.18503895    0.00000000
 C                  0.35020536    2.83323177    0.00000000
 C                  1.61665929    3.39532515    0.00000000
 H                  1.74190078    4.47551581    0.00000000
 C                  2.75178979    2.56347783    0.00000000
 Q                  0.74002323   -4.65942364    0.00000000
 Q                  3.66515704    2.97061437    0.00000000
 Q                 -4.40513586    1.68890866    0.00000000
 R1                -2.22032644    2.65158506    0.00000000
 R1                 3.40650324    0.59706657    0.00000000
 R1                -1.18617680   -3.24865163    0.00000000
 R2                -2.74198000   -2.10689834    0.00000000
 R2                 3.19561748   -1.32117516    0.00000000
 R2                -0.45363748    3.42807350    0.00000000
