# opt pbepbe/6-311g/auto

Title Card Required

0 1
 Br                 0.90475000    0.00000000    0.00000000
 R                  0.00000000    0.00000000    0.00000000
