%chk=C:\Users\lipel\Google Drive\Laboratório\Quím-Mat\Projetos\Doutorado\Resultados\Teste_Pipeline\4 - Blocos de construção\Núcleos\R\CH3.chk
# opt pbepbe/6-311g/auto

Title Card Required

0 2
 R                  0.00000000    0.00000000    0.00000000
 O                  0.42999962    0.00000040   -0.00057367
 C                  1.28527197    1.05465446    0.60719018
 H                  1.89121689    1.38544843   -0.21030972
 H                  0.85066379    1.90214565    1.09481135
 H                  1.89090726    0.51392847    1.30412727

