%chk=C:\Users\lipel\Google Drive\Laboratório\Quím-Mat\Projetos\Doutorado\pyCOF\Radicais\tBut.chk
# opt pbepbe/6-311g/auto

Title Card Required

0 2
 R                  0.00000000    0.00000000    0.00000000
 C                  0.60760000    0.00000000    0.00000000
 C                  1.12093360    1.25740474    0.72596274
 H                  0.34607027    1.64976053    1.35089775
 H                  1.96841594    1.00131235    1.32687071
 H                  1.40498131    1.99479235    0.00452223
 C                  1.12093288   -0.00000000   -1.45192608
 H                  2.19093288   -0.00000001   -1.45192609
 H                  0.76426568   -0.87365131   -1.95632860
 H                  0.76426626    0.87365136   -1.95632894
 C                  1.12093288   -1.25740468    0.72596337
 H                  1.40498004   -1.99479246    0.00452282
 H                  1.96841512   -1.00131240    1.32687154
 H                  0.34606964   -1.64976012    1.35089871

