# hf/3-21g geom=connectivity

Title Card Required

0 1
 C                  4.93095351    2.04003083    0.00000000
 C                  4.23219528    3.25031559   -0.00000000
 C                  2.84012327    3.24898702    0.00000000
 C                  2.14032652    2.04148008    0.00000000
 C                  2.83813687    0.83283710    0.00000000
 C                  4.23376693    0.83512539    0.00000000
 C                  2.06776144   -0.50198218    0.00000000
 C                  1.46861004   -1.53974285    0.00000000
 C                  0.59915140    2.04172503   -0.00000000
 C                 -0.59915140    2.04172503    0.00000000
 C                  0.69781035   -2.87431718    0.00000000
 C                  1.39364366   -4.08411241    0.00000000
 C                 -0.69781035   -2.87431718    0.00000000
 C                  0.69875824   -5.29034642    0.00000000
 C                 -1.39364366   -4.08411241    0.00000000
 C                 -0.69875824   -5.29034642    0.00000000
 C                 -2.14032652    2.04148008    0.00000000
 C                 -2.84012327    3.24898702    0.00000000
 C                 -2.83813687    0.83283710    0.00000000
 C                 -4.23219528    3.25031559    0.00000000
 C                 -4.23376693    0.83512539    0.00000000
 C                 -4.93095351    2.04003083    0.00000000
 C                 -2.06776144   -0.50198218    0.00000000
 C                 -1.46861004   -1.53974285    0.00000000
 Q                 -1.19906129   -6.15619678    0.00000000
 Q                  5.93095345    2.03968085    0.00000000
 Q                 -4.73189216    4.11651593    0.00000000
 R1                 2.33887613    4.11429119    0.00000000
 R1                -4.73251875   -0.03161945    0.00000000
 R1                 2.39364263   -4.08267174    0.00000000
 R2                 1.19906129   -6.15619678    0.00000000
 R2                 4.73189216    4.11651593   -0.00000000
 R2                -5.93095345    2.03968085    0.00000000
 R3                -2.39364263   -4.08267174    0.00000000
 R3                -2.33887613    4.11429119    0.00000000
 R3                 4.73251875   -0.03161945    0.00000000
