# hf/3-21g geom=connectivity

Title Card Required

0 1
 C                  2.25077773   -1.88562932    0.00000000
 C                  1.74967536   -2.97412646    0.00000000
 C                  1.10496925   -4.37397461    0.00000000
 C                  1.90918838   -5.51459728    0.00000000
 C                 -0.28472861   -4.50241518    0.00000000
 C                  1.32826306   -6.77966329    0.00000000
 C                 -0.86627005   -5.77111453    0.00000000
 C                 -0.06332254   -6.90827834    0.00000000
 C                 -1.86719452   -2.26622624    0.00000000
 C                 -1.17507954   -3.24444219    0.00000000
 C                  2.89620675   -0.48392477    0.00000000
 C                  3.39730913    0.60457237    0.00000000
 C                 -2.75839176   -1.00641603    0.00000000
 C                 -3.45050675   -0.02820008    0.00000000
 C                  4.04157023    2.00462538    0.00000000
 C                  5.43106682    2.13534539    0.00000000
 C                  3.23548850    3.14391874    0.00000000
 C                  6.01440581    3.39930024    0.00000000
 C                  3.82118715    4.41070428    0.00000000
 C                  5.20722911    4.54014120    0.00000000
 C                 -4.34045775    1.23005586    0.00000000
 C                 -5.73037553    1.10389301    0.00000000
 C                 -3.75684162    2.49778980    0.00000000
 C                 -6.53549217    2.23952209    0.00000000
 C                 -4.56479677    3.63576914    0.00000000
 C                 -5.95108327    3.50897810    0.00000000
 C                 -2.22222959    2.63986983    0.00000000
 C                 -1.02901223    2.75015101    0.00000000
 C                  0.50761403    2.89204535    0.00000000
 C                  1.70083139    3.00232654    0.00000000
 Q                 -6.52837691    4.32551471    0.00000000
 Q                 -0.48181716   -7.81649761    0.00000000
 Q                  7.01019408    3.49098290    0.00000000
 R1                -6.14724319    0.19492581    0.00000000
 R1                 2.90481089   -5.42113167    0.00000000
 R1                 3.24243230    5.22620586    0.00000000
 R2                -7.53121603    2.14714246    0.00000000
 R2                 1.90612809   -7.59579563    0.00000000
 R2                 5.62508793    5.44865317    0.00000000
 R3                -4.14531179    4.54353143    0.00000000
 R3                -1.86215774   -5.86171103    0.00000000
 R3                 6.00746953    1.31817960    0.00000000
