# hf/3-21g geom=connectivity

Title Card Required

0 1
 C                  0.00000000    1.39453268    0.00000000
 C                 -1.20787936    0.69736948    0.00000000
 C                 -1.20770073   -0.69726634    0.00000000
 C                  0.00000000   -1.39473895    0.00000000
 C                  1.20770073   -0.69726634    0.00000000
 C                  1.20787936    0.69736948    0.00000000
 C                  2.54196366   -1.46760340    0.00000000
 C                  2.54228722   -2.86227973    0.00000000
 C                  3.74995057   -0.77054546    0.00000000
 C                  3.75006023   -3.55977947    0.00000000
 C                  4.95788957   -1.46775769    0.00000000
 C                  4.95823064   -2.86263579    0.00000000
 C                  0.00000000    2.93520681    0.00000000
 C                 -1.20766334    3.63282518    0.00000000
 C                  1.20766334    3.63282518    0.00000000
 C                 -1.20782934    5.02753717    0.00000000
 C                  1.20782934    5.02753717    0.00000000
 C                  0.00000000    5.72527159    0.00000000
 C                 -2.54196366   -1.46760340    0.00000000
 C                 -2.54228722   -2.86227973    0.00000000
 C                 -3.74995057   -0.77054546    0.00000000
 C                 -3.75006023   -3.55977947    0.00000000
 C                 -4.95788957   -1.46775769    0.00000000
 C                 -4.95823064   -2.86263579    0.00000000
 C                 -6.29201096   -3.63269422    0.00000000
 C                 -7.49942932   -2.93794428    0.00000000
 C                 -6.29404904   -5.02572417    0.00000000
 C                 -8.70698609   -3.63581802    0.00000000
 C                 -7.50220381   -5.72256214    0.00000000
 C                 -8.70827753   -5.02772637    0.00000000
 C                 -0.00000000    7.26538844    0.00000000
 C                 -1.20538028    7.96366845    0.00000000
 C                  1.20538028    7.96366845    0.00000000
 C                 -1.20478228    9.35838015    0.00000000
 C                  1.20478228    9.35838015    0.00000000
 C                 -0.00000000   10.05545275    0.00000000
 C                  6.29201096   -3.63269422    0.00000000
 C                  7.49942932   -2.93794428    0.00000000
 C                  6.29404904   -5.02572417    0.00000000
 C                  8.70698609   -3.63581802    0.00000000
 C                  7.50220381   -5.72256214    0.00000000
 C                  8.70827753   -5.02772637    0.00000000
 Q                 -9.57430293   -5.52772637    0.00000000
 Q                 -0.00000000   11.05545275    0.00000000
 Q                  9.57430293   -5.52772637    0.00000000
 R1                -9.57333724   -3.13638265    0.00000000
 R1                 2.07048157    9.85894457    0.00000000
 R1                 7.50285567   -6.72256192    0.00000000
 R2                -2.07390477    1.19736948    0.00000000
 R2                 0.00000000   -2.39473895    0.00000000
 R2                 2.07390477    1.19736948    0.00000000
 R3                -7.50285567   -6.72256192    0.00000000
 R3                -2.07048157    9.85894457    0.00000000
 R3                 9.57333724   -3.13638265    0.00000000
 R4                -7.49967324   -1.93794431    0.00000000
 R4                 2.07152762    7.46387970    0.00000000
 R4                 5.42814562   -5.52593539    0.00000000
 R5                -5.82396709   -0.96784796    0.00000000
 R5                 3.75016447   -4.55977947    0.00000000
 R5                 2.07380262    5.52762743    0.00000000
 R6                -3.74964704    0.22945450    0.00000000
 R6                 1.67611010   -3.36201684    0.00000000
 R6                 2.07353694    3.13256234    0.00000000
 R7                -1.67611010   -3.36201684    0.00000000
 R7                 3.74964704    0.22945450    0.00000000
 R7                -2.07353694    3.13256234    0.00000000
 R8                -3.75016447   -4.55977947    0.00000000
 R8                 5.82396709   -0.96784796    0.00000000
 R8                -2.07380262    5.52762743    0.00000000
 R9                -5.42814562   -5.52593539    0.00000000
 R9                -2.07152762    7.46387970    0.00000000
 R9                 7.49967324   -1.93794431    0.00000000
