%chk=CH4.chk
# hf/3-21g geom=connectivity

Title Card Required

0 1
 C    0.00000000    0.00000000    0.00000000 
 H    0.62500000    0.62500000    0.62500000
 H   -0.62500000   -0.62500000    0.62500000
 H    0.62500000   -0.62500000   -0.62500000
 H   -0.62500000    0.62500000   -0.62500000

 1 2 1.0 3 1.0 4 1.0 5 1.0
 2
 3
 4
 5


