%chk=test1_symmetry_charges.chk
# pbepbe/3-21g/auto

Title Card Required

0 1
 H                  1.76105047    5.64392724    1.80730000
 H                 -1.66057169    5.94676003    1.80730000
 C                 -1.37343572    8.29237796    1.80730000
 C                 -0.33530557    7.32052326    1.80730000
 C                  2.05240129    6.69947486    1.80730000
 N                 -0.22805295   12.38942017    1.80730000
 O                 -0.62831222    6.02171864    1.80730000
 H                 11.04574087    4.34707806    1.80730000
 H                  1.75819040   11.73943123    1.80730000
 H                  5.76544953    7.39235317    1.80730000
 H                 -3.51924087    8.68920234    1.80730000
 H                  5.76830960    1.29684917    1.80730000
 H                  9.07266890    1.53528274    1.80730000
 H                  3.20674059    8.62480311    1.80730000
 H                  9.18707170    7.08952037    1.80730000
 H                 -1.54616889   11.50099766    1.80730000
 H                  4.31975941    4.41147729    1.80730000
 C                  7.18487217    2.95675876    1.80730000
 C                  1.03180788    7.70066120    1.80730000
 C                  8.89993572    4.74390244    1.80730000
 C                  0.34162784   10.07952164    1.80730000
 C                  6.49469211    5.33561921    1.80730000
 C                  8.54558810    3.36987848    1.80730000
 C                  1.35439368    9.08563563    1.80730000
 C                  7.86180558    5.71575714    1.80730000
 C                 -1.01908810    9.66640192    1.80730000
 C                  6.17210633    3.95064478    1.80730000
 C                 10.27728522    5.12716908    1.80730000
 C                  0.69838394   11.46397462    1.80730000
 C                  5.47409872    6.33680554    1.80730000
 C                 -2.75078522    7.90911132    1.80730000
 C                  6.82811606    1.57230578    1.80730000
 N                  4.20942092    5.99721044    1.80730000
 N                 -3.08902613    6.64407067    1.80730000
 N                  7.75455295    0.64686023    1.80730000
 N                  3.31707908    7.03906997    1.80730000
 N                 10.61552613    6.39220973    1.80730000
 O                  9.52388257    2.46672498    1.80730000
 O                  2.62569479    9.48128674    1.80730000
 O                  8.15481222    7.01456176    1.80730000
 O                 -1.99738257   10.56955543    1.80730000
 O                  4.90080521    3.55499367    1.80730000
 Tv                15.05300000    0.00000000    0.00000000
 Tv                -7.52650000   13.03628040    0.00000000
 Tv                 0.00000000    0.00000000    3.61460000

