# hf/3-21g

Title Card Required

0 1
 C                  2.22815506    5.88869593    0.00000000
 C                  1.31223958    6.89199099    0.00000000
 C                 -0.05560098    6.59057262    0.00000000
 C                 -0.46430191    5.25684742    0.00000000
 C                  0.49202258    4.23691890    0.00000000
 C                  1.81228005    4.54619023    0.00000000
 C                 -1.01231639    7.61796087    0.00000000
 C                 -1.82752942    4.95111634    0.00000000
 C                 -2.76666724    5.98256169    0.00000000
 C                 -2.34033962    7.32012505    0.00000000
 C                 -4.13222420    5.67096091    0.00000000
 C                 -4.53194882    4.37260719    0.00000000
 C                 -3.58257423    3.33628606    0.00000000
 C                 -2.25668933    3.62046518    0.00000000
 C                 -4.84325625   -0.70361455    0.00000000
 C                 -6.21383780   -1.01470908    0.00000000
 C                 -3.91529069   -1.69235540    0.00000000
 C                 -6.62475908   -2.30956268    0.00000000
 C                 -4.32041245   -3.03052096    0.00000000
 C                 -5.67980282   -3.34343817    0.00000000
 C                 -3.37402781   -4.05824508    0.00000000
 C                 -6.09118944   -4.68567215    0.00000000
 C                 -3.79771678   -5.38728496    0.00000000
 C                 -2.00707016   -3.76458288    0.00000000
 C                 -5.16924445   -5.68685609    0.00000000
 C                 -2.84508411   -6.41409158    0.00000000
 C                 -1.09802137   -4.77074332    0.00000000
 C                 -1.52081450   -6.11108640    0.00000000
 C                  4.68059560    1.43445726    0.00000000
 C                  6.05276332    1.73847921    0.00000000
 C                  4.26375948    0.14411769    0.00000000
 C                  6.97730831    0.74313067    0.00000000
 C                  5.20155724   -0.89287126    0.00000000
 C                  6.56438403   -0.59527673    0.00000000
 C                  4.78471436   -2.22632646    0.00000000
 C                  7.50958406   -1.63326896    0.00000000
 C                  5.73540380   -3.24713445    0.00000000
 C                  3.42326811   -2.54456350    0.00000000
 C                  7.10350583   -2.93228873    0.00000000
 C                  5.31251949   -4.58242831    0.00000000
 C                  3.03097620   -3.84257567    0.00000000
 C                  3.98568274   -4.87398685    0.00000000
 C                  1.53120190   -4.18866637    0.00000000
 C                  0.36072301   -4.45859340    0.00000000
 C                 -4.04161665    1.91690141    0.00000000
 C                 -4.39309244    0.76827344    0.00000000
 C                  2.86189053    3.42039293    0.00000000
 C                  3.68089364    2.54169199    0.00000000
 X                  7.78336012   -3.66563595    0.00000000
 X                 -0.71714621    8.57340556    0.00000000
 X                 -7.06621391   -4.90776961    0.00000000
 H                 8.48598992   -1.41732546    0.00000000
 H                -5.47043482   -6.64042012    0.00000000
 H                -3.01555511    8.05774558    0.00000000
 Li                 5.98810327   -5.31971154    0.00000000
 Li                 1.61295370    7.84570532    0.00000000
 Li                -7.60105697   -2.52599378    0.00000000
 Na                 3.68726140   -5.82842108    0.00000000
 Na                 3.20393002    6.10747258    0.00000000
 Na                -6.89119142   -0.27905150    0.00000000
 F                -0.84194346   -6.84534393    0.00000000
 F                -5.50727001    4.15181639    0.00000000
 F                 6.34921347    2.69352754    0.00000000
 Cl                -3.14124713   -7.36922899    0.00000000
 Cl                -4.81131594    6.40501431    0.00000000
 Cl                 7.95256308    0.96421468    0.00000000
 Br                 2.73952925   -1.81483672    0.00000000
 Br                 0.20193008    3.27992029    0.00000000
 Br                -2.94145933   -1.46508357    0.00000000
 I                -1.70062737   -2.81269380    0.00000000
 I                -1.58555059    2.87913341    0.00000000
 I                 3.28617797   -0.06643961    0.00000000
