# opt pm6 geom=connectivity

Title Card Required

0 2
 C                  0.91613088   -1.03094349    0.00000000
 C                  1.39425408    0.27950836    0.00000000
 C                  0.43475781    1.30886436    0.00000000
 C                 -0.93918838    1.06770527    0.00000000
 C                 -1.35088869   -0.27792087    0.00000000
 C                 -0.45506570   -1.34721363    0.00000000
 H                  2.45103022    0.52385262    0.00000000
 H                 -1.67918479    1.86072813    0.00000000
 H                 -0.77184543   -2.38458075    0.00000000
 O                  1.00705480    2.56528361    0.00000000
 O                  1.71807337   -2.15477684    0.00000000
 O                 -2.72512817   -0.41050676    0.00000000
 C                  0.19280490    3.71056318    0.00000000
 C                  0.88180388    4.92625321    0.00000000
 C                 -1.20259707    3.62398381    0.00000000
 C                  0.12815679    6.09892091    0.00000000
 H                  1.96963690    4.93791805    0.00000000
 C                 -1.93038823    4.81426812    0.00000000
 H                 -1.70211547    2.65860286    0.00000000
 C                 -1.27033157    6.04546761    0.00000000
 C                  3.11703952   -2.02225553    0.00000000
 C                  3.82535849   -3.22679116    0.00000000
 C                  3.73976058   -0.77051229    0.00000000
 C                  5.21774205   -3.16044749    0.00000000
 H                  3.29154402   -4.17471462    0.00000000
 C                  5.13447261   -0.73536882    0.00000000
 H                  3.15347535    0.14477380    0.00000000
 C                  5.87069431   -1.92259439    0.00000000
 C                 -3.30984443   -1.68830764    0.00000000
 C                 -4.70716237   -1.69946205    0.00000000
 C                 -2.53716351   -2.85347152    0.00000000
 C                 -5.34589884   -2.93847342    0.00000000
 H                 -5.26118092   -0.76320343    0.00000000
 C                 -3.20408438   -4.07889931    0.00000000
 H                 -1.45135988   -2.80337666    0.00000000
 C                 -4.60036274   -4.12287322    0.00000000
 Q                 -1.80217185    6.89231230    0.00000000
 Q                  6.87000346   -1.88542954    0.00000000
 Q                 -5.06783161   -5.00688275    0.00000000
 R1                 0.59515296    6.98318025    0.00000000
 R1                 5.75003501   -4.00700771    0.00000000
 R1                -6.34518798   -2.97617254    0.00000000
 R2                -2.67705024   -4.92874342    0.00000000
 R2                 5.60694213    0.14597820    0.00000000
 R2                -2.92989189    4.78276522    0.00000000