# opt pbepbe/6-311g/auto

Title Card Required

0 2
 F                  0.00000000    0.00000000    0.00000000
 H                  0.91316375    0.92770472   -0.00000000
 C                  0.30283274   -2.51068102    0.00000000
 N                 -0.26258301   -3.50817596    0.00000000
 X                  0.38000000   -0.00000000   -0.00000000

