# opt pbepbe/6-311g/auto

Title Card Required

0 1
 F                  0.00000000    0.00000000    0.00000000
 X                  0.38000000    0.00000000    0.00000000
 C                  1.09802718    1.24936702    0.00000000
 N                  1.66935957    2.24348516   -0.00000000

