# opt pbepbe/6-311g/auto

Title Card Required

0 2
 F                  0.00000000    0.00000000    0.00000000
 H                  1.24945514    0.32205908    0.00000000
 C                  0.39767850   -0.20913489    0.00000000
 N                  0.44482913   -1.67837851    0.00000000
 X                  1.56800973   -2.27966158    0.00000000

