# opt pbepbe/6-311g/auto

Title Card Required

0 1
 Q                  0.00000000    0.00000000    0.00000000
 C                  0.45000000    0.00000000    0.00000000
 O                  0.93949639    1.12317482    0.00000000
 N                  1.28911694   -1.16938849    0.00000000
 X                  1.60099962   -1.11891794    0.00000000
 H                  0.93504819   -2.15789004    0.00000000