
# opt pbepbe/6-311g/auto

Title Card Required

0 1
 Q                  0.00000000    0.00000000    0.00000000
 C                  0.45000000    0.00000000    0.00000000
 O                  0.93949639    1.12317482    0.00010130
 N                  1.28911694   -1.16938849    0.00008669
 H                  1.19718229   -2.18185415    0.00004514
 X                  2.58815584   -0.95917095    0.00016636
