# opt pbepbe/6-311g/auto

Title Card Required

0 1
 Q                  0.00000000    0.00000000    0.00000000
 N                  0.45000000   -0.00000000    0.00000000
 X                  1.74903890    0.21021754    0.00007967
 H                  0.29474250   -1.02882128   -0.00005103

