# opt pbepbe/6-311g/auto

Title Card Required

0 2
 F                  0.00000000    0.00000000    0.00000000
 X                  0.38000000    0.00000000    0.00000000
 O                  0.80826423    1.33288775    0.00000000

