# opt pbepbe/6-311g/auto

Title Card Required

0 2
 Q                  0.00000000    0.00000000    0.00000000
 X                  0.08100000    0.00000000    0.00000000

