%chk=C:\Users\lipel\Google Drive\Laboratório\Quím-Mat\Projetos\Doutorado\pyCOF\Nucleo\C2\ANTR.chk
# hf/3-21g 

Title Card Required

0 1
 C                 -3.64978730   -0.71281101    0.00188618
 C                 -2.47338980   -1.40437566   -0.00292969
 C                 -1.21761734   -0.71439782   -0.00223027
 C                 -1.21761734    0.71439782   -0.00223027
 C                 -2.47338980    1.40437566   -0.00292969
 C                 -3.64978730    0.71281101    0.00188618
 C                  0.00000000   -1.40362211   -0.00221007
 C                 -0.00000000    1.40362211   -0.00221007
 C                  1.21761734    0.71439782   -0.00223027
 C                  1.21761734   -0.71439782   -0.00223027
 C                  2.47338980   -1.40437566   -0.00292969
 C                  3.64978730   -0.71281101    0.00188618
 C                  3.64978730    0.71281101    0.00188618
 C                  2.47338980    1.40437566   -0.00292969
 R1                -0.00000000    2.40362210   -0.00237585
 R1                 0.00000000   -2.40362210   -0.00237585
 R2                -2.46088740    2.40427907    0.00314162
 R2                 2.46088740   -2.40427907    0.00314162
 Q                 -4.52784537   -1.19136204    0.00359854
 Q                  4.52784537    1.19136204    0.00359854
 R3                -2.46088740   -2.40427907    0.00314162
 R3                 2.46088740    2.40427907    0.00314162
 R4                -4.52784537    1.19136204    0.00359854
 R4                 4.52784537   -1.19136204    0.00359854
