# opt rpm6 scrf=check guess=huckel genchk

Title Card Required

0 1
 C                  0.00000000   -4.82072933    0.00000000
 C                 -1.23570177   -4.11589621    0.00000000
 C                 -1.22827294   -2.72208687    0.00000000
 C                  0.00000000   -2.02034226    0.00000000
 C                  1.22827294   -2.72208687    0.00000000
 C                  1.23570177   -4.11589621    0.00000000
 C                  0.00000000   -0.60522542    0.00000000
 C                  0.00000000    0.60522542    0.00000000
 C                  0.00000000    2.02034226    0.00000000
 C                 -1.22827294    2.72208687    0.00000000
 C                  1.22827294    2.72208687    0.00000000
 C                 -1.23570177    4.11589621    0.00000000
 C                  1.23570177    4.11589621    0.00000000
 C                  0.00000000    4.82072933    0.00000000
 Q                  0.00000000   -5.82072933    0.00000000
 Q                  0.00000000    5.82072933    0.00000000
 R1                 2.10395305   -4.61202090    0.00000000
 R1                -2.10395305    4.61202090    0.00000000
 R2                -2.10395305   -4.61202090    0.00000000
 R2                 2.10395305    4.61202090    0.00000000
 R3                 2.09109010   -2.21657075    0.00000000
 R3                -2.09109010    2.21657075    0.00000000
 R3                -2.09109010   -2.21657075    0.00000000
 R3                 2.09109010    2.21657075    0.00000000

