%chk=C:\Users\lipel\Google Drive\Laboratório\Quím-Mat\Projetos\Doutorado\Resultados\Teste_Pipeline\4 - Blocos de construção\Núcleos\NAFT.chk
# hf/3-21g 

Title Card Required

0 1
 C                 -1.21352078   -1.20479619    0.00000000
 C                 -0.03928960   -0.49362557    0.00000000
 C                 -0.05644279    0.92828220    0.00000000
 C                 -1.30371382    1.60348989    0.00000000
 C                 -2.50508960    0.84175373    0.00000000
 C                 -2.45886108   -0.53080812    0.00000000
 C                  1.14493299    1.69001836    0.00000000
 C                 -1.32086702    3.02539766    0.00000000
 C                 -0.14663583    3.73656828    0.00000000
 C                  1.09870446    3.06258021    0.00000000
 Q                 -3.30155154   -1.06920647    0.00000000
 Q                  1.94139493    3.60097856    0.00000000
 R1                -3.37995519    1.32611950    0.00000000
 R1                 2.01979858    1.20565259    0.00000000
 R2                -2.20436068    3.49384076    0.00000000
 R2                 0.84420407   -0.96206867    0.00000000
 R3                -1.20386189   -2.20474954    0.00000000
 R3                -0.15629472    4.73652163    0.00000000


