%chk=C:\Users\lipel\Google Drive\Laboratório\Quím-Mat\Projetos\Doutorado\Resultados\Teste_Pipeline\4 - Blocos de construção\Núcleos\R\CH3.chk
# opt pbepbe/6-311g/auto

Title Card Required

0 2
 R                  0.00000000    0.00000000    0.00000000
 C                  0.45000000    0.00000000    0.00000000
 O                  1.17508507   -0.85756574    0.49511581
 H                  1.09769069    0.78115892   -0.45100232

