%chk=C:\Users\R1pel\OneDrive\Documentos\GitHub\pyCOFBuilder\src\pycofbuilder\data\core\H6\R3QA.chk
# hf/3-21g geom=connectivity

Title Card Required

0 1
 C                 -1.37167740    0.00000000    0.00000000
 C                 -0.68583870   -1.18790747    0.00000000
 C                  0.68583870   -1.18790747    0.00000000
 C                  1.37167740    0.00000000    0.00000000
 C                  0.68583870    1.18790747    0.00000000
 C                 -0.68583870    1.18790747    0.00000000
 C                  2.88178060    0.00000000    0.00000000
 C                  3.56599195   -1.23235936    0.00000000
 C                  3.56599195    1.23235936    0.00000000
 C                  4.96821651   -1.22291838    0.00000000
 C                  4.96821651    1.22291838    0.00000000
 C                  5.66388064    0.00000000    0.00000000
 C                  1.44089030    2.49569521    0.00000000
 C                  0.71574146    3.70441930    0.00000000
 C                  2.85025049    2.47205994    0.00000000
 C                  1.42502987    4.91406090    0.00000000
 C                  3.54318664    3.69114252    0.00000000
 C                  2.83194032    4.90506452    0.00000000
 C                 -1.44089030    2.49569521    0.00000000
 C                 -0.71574146    3.70441930    0.00000000
 C                 -2.85025049    2.47205994    0.00000000
 C                 -1.42502987    4.91406090    0.00000000
 C                 -3.54318664    3.69114252    0.00000000
 C                 -2.83194032    4.90506452    0.00000000
 C                 -2.88178060    0.00000000    0.00000000
 C                 -3.56599195    1.23235936    0.00000000
 C                 -3.56599195   -1.23235936    0.00000000
 C                 -4.96821651    1.22291838    0.00000000
 C                 -4.96821651   -1.22291838    0.00000000
 C                 -5.66388064    0.00000000    0.00000000
 C                 -1.44089030   -2.49569521    0.00000000
 C                 -2.85025049   -2.47205994    0.00000000
 C                 -0.71574146   -3.70441930    0.00000000
 C                 -3.54318664   -3.69114252    0.00000000
 C                 -1.42502987   -4.91406090    0.00000000
 C                 -2.83194032   -4.90506452    0.00000000
 C                  1.44089030   -2.49569521    0.00000000
 C                  0.71574146   -3.70441930    0.00000000
 C                  2.85025049   -2.47205994    0.00000000
 C                  1.42502987   -4.91406090    0.00000000
 C                  3.54318664   -3.69114252    0.00000000
 C                  2.83194032   -4.90506452    0.00000000
 C                 -3.60194032    6.23874364    0.00000000
 C                 -2.90430177    7.44695383   -0.00011123
 C                 -4.99676939    6.23884880    0.00000000
 C                 -3.60141712    8.65494870    0.00045945
 C                 -5.69424775    7.44712594   -0.00042509
 C                 -4.99684402    8.65508493   -0.00005725
 C                  7.20388064    0.00000000    0.00000000
 C                  7.90140208    1.20827781   -0.00000000
 C                  7.90138625   -1.20790482    0.00011119
 C                  9.29611400    1.20855560   -0.00057070
 C                  9.29652412   -1.20780018    0.00053628
 C                  9.99394544    0.00014862    0.00005724
 C                  3.60194032   -6.23874364    0.00000000
 C                  2.90430177   -7.44695383    0.00000000
 C                  4.99676939   -6.23884880   -0.00011119
 C                  3.60141716   -8.65494868    0.00057070
 C                  5.69424771   -7.44712596   -0.00053628
 C                  4.99684402   -8.65508494   -0.00005724
 C                 -3.60194032   -6.23874364    0.00000000
 C                 -4.99710032   -6.23867602    0.00000000
 C                 -2.90461687   -7.44675363   -0.00011119
 C                 -5.69469686   -7.44639308    0.00057070
 C                 -3.60227643   -8.65492615   -0.00053628
 C                 -4.99710143   -8.65493632   -0.00005724
 C                 -7.20388064    0.00000000    0.00000000
 C                 -7.90140208    1.20827781    0.00000000
 C                 -7.90138625   -1.20790482   -0.00011119
 C                 -9.29611400    1.20855560    0.00057070
 C                 -9.29652412   -1.20780018   -0.00053628
 C                 -9.99394544    0.00014862   -0.00005724
 C                  3.60194032    6.23874364    0.00000000
 C                  4.99710032    6.23867602   -0.00011123
 C                  2.90461687    7.44675363   -0.00000000
 C                  5.69469690    7.44639305    0.00045945
 C                  3.60227639    8.65492617   -0.00042509
 C                  4.99710143    8.65493632   -0.00005725
 Q                 10.99394528    0.00057512   -0.00029824
 Q                  5.49647459   -9.52132346    0.00029824
 Q                  5.49747074    9.52074833    0.00029819
 Q                 -5.49647456    9.52132347    0.00029819
 Q                -10.99394528    0.00057512    0.00029824
 Q                 -5.49747072   -9.52074834    0.00029824
 R1                 6.69424758   -7.44692078   -0.00099366
 R1                 9.79613471    2.07456885   -0.00114727
 R1                 3.10209873    9.52084889   -0.00080275
 R1                -6.69424765    7.44692073   -0.00080275
 R1                -9.79634637   -2.07392807   -0.00099366
 R1                -3.10209880   -9.52084885   -0.00099366
 R2                 9.79634637   -2.07392807    0.00099366
 R2                 6.69469677    7.44641704    0.00095629
 R2                -3.10143795    9.52098599    0.00095629
 R2                -9.79613471    2.07456885    0.00114727
 R2                -6.69469669   -7.44641708    0.00114727
 R2                 3.10143804   -9.52098595    0.00114727
 R3                 5.49695553   -5.37293091   -0.00027481
 R3                 7.40106980    2.07411093   -0.00078653
 R3                 1.90461689    7.44696860   -0.00008389
 R3                -5.49695555    5.37293091   -0.00008389
 R3                -7.40157243   -2.07403767   -0.00027481
 R3                -1.90461691   -7.44696860   -0.00027481
 R4                -5.49676765   -5.37245899    0.00078653
 R4                 1.90430215   -7.44656993    0.00078653
 R4                 7.40157243   -2.07403767    0.00027481
 R4                 5.49676771    5.37245896    0.00059559
 R4                -1.90430210    7.44656996    0.00059559
 R4                -7.40106980    2.07411093    0.00078653
 R5                -4.54316526    3.69768166    0.00000000
 R5                 5.47386888    2.08565569    0.00000000
 R5                 0.93070363    5.78333736    0.00000000
 R5                -5.47386888   -2.08565569    0.00000000
 R5                -0.93070363   -5.78333736    0.00000000
 R5                 4.54316526   -3.69768166    0.00000000
 R6                -0.93070363    5.78333736    0.00000000
 R6                 4.54316526    3.69768166    0.00000000
 R6                 5.47386888   -2.08565569    0.00000000
 R6                 0.93070363   -5.78333736    0.00000000
 R6                -4.54316526   -3.69768166    0.00000000
 R6                -5.47386888    2.08565569    0.00000000



